NAME: tsp30-45
TYPE: TSP
DIMENSION: 30
EDGE_WEIGHT_TYPE: EUC_2D
NODE_COORD_SECTION
0 97 14
1 93 21
2 35 78
3 89 39
4 31 64
5 79 6
6 40 90
7 20 58
8 74 21
9 16 29
10 52 9
11 19 52
12 28 82
13 91 6
14 86 24
15 57 73
16 64 0
17 87 68
18 31 91
19 52 37
20 63 26
21 18 9
22 80 25
23 42 59
24 23 67
25 59 71
26 96 41
27 70 34
28 1 8
29 42 90
EOF